NAME F-JSSP-SDST
ROWS
 N  OBJ
 E  c0      
 E  c1      
 E  c2      
 E  c3      
 E  c4      
 E  c5      
 E  c6      
 E  c7      
 E  c8      
 G  c9      
 G  c10     
 G  c11     
 G  c12     
 G  c13     
 G  c14     
 G  c15     
 G  c16     
 G  c17     
 G  c18     
 G  c19     
 L  c20     
 L  c21     
 L  c22     
 L  c23     
 L  c24     
 L  c25     
 L  c26     
 L  c27     
 L  c28     
 L  c29     
 L  c30     
 L  c31     
 L  c32     
 L  c33     
 L  c34     
 L  c35     
 L  c36     
 L  c37     
 G  c38     
 G  c39     
 G  c40     
 G  c41     
 G  c42     
 G  c43     
 G  c44     
 G  c45     
 G  c46     
 G  c47     
 G  c48     
 G  c49     
 G  c50     
 G  c51     
 G  c52     
 G  c53     
 G  c54     
 G  c55     
 G  c56     
 G  c57     
 G  c58     
 G  c59     
 G  c60     
 G  c61     
 G  c62     
 G  c63     
 G  c64     
 G  c65     
 G  c66     
 G  c67     
 G  c68     
 G  c69     
 G  c70     
 G  c71     
 G  c72     
 G  c73     
 G  c74     
 G  c75     
 G  c76     
 G  c77     
 G  c78     
 G  c79     
 G  c80     
 G  c81     
 G  c82     
 G  c83     
 G  c84     
 G  c85     
 G  c86     
 G  c87     
 G  c88     
 G  c89     
 G  c90     
 G  c91     
 G  c92     
 G  c93     
 G  c94     
 G  c95     
 G  c96     
 G  c97     
 G  c98     
 G  c99     
 G  c100    
 G  c101    
 G  c102    
 G  c103    
 G  c104    
 G  c105    
 G  c106    
 G  c107    
 G  c108    
 G  c109    
 G  c110    
 G  c111    
 G  c112    
 G  c113    
 G  c114    
 G  c115    
 G  c116    
 G  c117    
 G  c118    
 G  c119    
 G  c120    
 G  c121    
 G  c122    
 G  c123    
 G  c124    
 G  c125    
 G  c126    
 G  c127    
 G  c128    
 G  c129    
 E  c130    
COLUMNS
    MARKER    'MARKER'                 'INTORG'
    B0(8)     c0        1
    B0(8)     c9        -117
    B0(8)     c10       -117
    B0(8)     c20       -1000000000
    B0(8)     c40       -1000000000
    B0(8)     c41       -1000000000
    B0(8)     c44       -1000000000
    B0(8)     c45       -1000000000
    B1(12)    c0        1
    B1(12)    c9        -125
    B1(12)    c10       -1000000125
    B1(12)    c21       -1000000000
    B1(12)    c38       -1000000000
    B1(12)    c39       -1000000000
    B1(12)    c42       -1000000000
    B1(12)    c43       -1000000000
    B1(12)    c46       -1000000000
    B1(12)    c47       -1000000000
    B1(12)    c48       -1000000000
    B1(12)    c49       -1000000000
    B2(12)    c1        1
    B2(12)    c11       -140
    B2(12)    c12       -1000000140
    B2(12)    c22       -1000000000
    B2(12)    c50       -1000000000
    B2(12)    c51       -1000000000
    B2(12)    c56       -1000000000
    B2(12)    c57       -1000000000
    B2(12)    c58       -1000000000
    B2(12)    c59       -1000000000
    B2(12)    c60       -1000000000
    B2(12)    c61       -1000000000
    B3(13)    c1        1
    B3(13)    c10       -1000000000
    B3(13)    c11       -130
    B3(13)    c12       -130
    B3(13)    c23       -1000000000
    B3(13)    c38       -1000000000
    B3(13)    c39       -1000000000
    B3(13)    c48       -1000000000
    B3(13)    c49       -1000000000
    B3(13)    c52       -1000000000
    B3(13)    c53       -1000000000
    B3(13)    c54       -1000000000
    B3(13)    c55       -1000000000
    B4(12)    c2        1
    B4(12)    c12       -1000000000
    B4(12)    c24       -1000000000
    B4(12)    c50       -1000000000
    B4(12)    c51       -1000000000
    B4(12)    c60       -1000000000
    B4(12)    c61       -1000000000
    B4(12)    c64       -1000000000
    B4(12)    c65       -1000000000
    B4(12)    c66       -1000000000
    B4(12)    c67       -1000000000
    B4(12)    c130      -150
    B5(7)     c2        1
    B5(7)     c25       -1000000000
    B5(7)     c62       -1000000000
    B5(7)     c63       -1000000000
    B5(7)     c68       -1000000000
    B5(7)     c69       -1000000000
    B5(7)     c130      -160
    B6(8)     c3        1
    B6(8)     c13       -214
    B6(8)     c14       -214
    B6(8)     c26       -1000000000
    B6(8)     c40       -1000000000
    B6(8)     c41       -1000000000
    B6(8)     c74       -1000000000
    B6(8)     c75       -1000000000
    B7(14)    c3        1
    B7(14)    c13       -150
    B7(14)    c14       -1000000150
    B7(14)    c27       -1000000000
    B7(14)    c70       -1000000000
    B7(14)    c71       -1000000000
    B7(14)    c72       -1000000000
    B7(14)    c73       -1000000000
    B7(14)    c76       -1000000000
    B7(14)    c77       -1000000000
    B7(14)    c78       -1000000000
    B7(14)    c79       -1000000000
    B7(14)    c86       -1000000000
    B7(14)    c87       -1000000000
    B8(15)    c4        1
    B8(15)    c14       -1000000000
    B8(15)    c15       -55
    B8(15)    c16       -1000000055
    B8(15)    c28       -1000000000
    B8(15)    c70       -1000000000
    B8(15)    c71       -1000000000
    B8(15)    c78       -1000000000
    B8(15)    c79       -1000000000
    B8(15)    c80       -1000000000
    B8(15)    c81       -1000000000
    B8(15)    c84       -1000000000
    B8(15)    c85       -1000000000
    B8(15)    c88       -1000000000
    B8(15)    c89       -1000000000
    B9(10)    c4        1
    B9(10)    c15       -66
    B9(10)    c16       -66
    B9(10)    c29       -1000000000
    B9(10)    c42       -1000000000
    B9(10)    c43       -1000000000
    B9(10)    c52       -1000000000
    B9(10)    c53       -1000000000
    B9(10)    c82       -1000000000
    B9(10)    c83       -1000000000
    B10(7)    c5        1
    B10(7)    c30       -1000000000
    B10(7)    c62       -1000000000
    B10(7)    c63       -1000000000
    B10(7)    c92       -1000000000
    B10(7)    c93       -1000000000
    B10(7)    c130      -78
    B11(14)   c5        1
    B11(14)   c16       -1000000000
    B11(14)   c31       -1000000000
    B11(14)   c72       -1000000000
    B11(14)   c73       -1000000000
    B11(14)   c80       -1000000000
    B11(14)   c81       -1000000000
    B11(14)   c86       -1000000000
    B11(14)   c87       -1000000000
    B11(14)   c88       -1000000000
    B11(14)   c89       -1000000000
    B11(14)   c90       -1000000000
    B11(14)   c91       -1000000000
    B11(14)   c130      -65
    B12(7)    c6        1
    B12(7)    c17       -87
    B12(7)    c32       -1000000000
    B12(7)    c44       -1000000000
    B12(7)    c45       -1000000000
    B12(7)    c74       -1000000000
    B12(7)    c75       -1000000000
    B13(9)    c6        1
    B13(9)    c17       -62
    B13(9)    c33       -1000000000
    B13(9)    c46       -1000000000
    B13(9)    c47       -1000000000
    B13(9)    c54       -1000000000
    B13(9)    c55       -1000000000
    B13(9)    c82       -1000000000
    B13(9)    c83       -1000000000
    B14(8)    c7        1
    B14(8)    c18       -70
    B14(8)    c19       -1000000070
    B14(8)    c34       -1000000000
    B14(8)    c56       -1000000000
    B14(8)    c57       -1000000000
    B14(8)    c64       -1000000000
    B14(8)    c65       -1000000000
    B15(10)   c7        1
    B15(10)   c18       -80
    B15(10)   c19       -80
    B15(10)   c35       -1000000000
    B15(10)   c76       -1000000000
    B15(10)   c77       -1000000000
    B15(10)   c84       -1000000000
    B15(10)   c85       -1000000000
    B15(10)   c90       -1000000000
    B15(10)   c91       -1000000000
    B16(8)    c8        1
    B16(8)    c19       -1000000000
    B16(8)    c36       -1000000000
    B16(8)    c58       -1000000000
    B16(8)    c59       -1000000000
    B16(8)    c66       -1000000000
    B16(8)    c67       -1000000000
    B16(8)    c130      -190
    B17(7)    c8        1
    B17(7)    c37       -1000000000
    B17(7)    c68       -1000000000
    B17(7)    c69       -1000000000
    B17(7)    c92       -1000000000
    B17(7)    c93       -1000000000
    B17(7)    c130      -100
    B18(0)    OBJ       0
    B19(2)    c38       -1000000000
    B19(2)    c39       1000000000
    B20(0)    OBJ       0
    B21(2)    c40       -1000000000
    B21(2)    c41       1000000000
    B22(2)    c42       -1000000000
    B22(2)    c43       1000000000
    B23(0)    OBJ       0
    B24(4)    c44       -1000000000
    B24(4)    c45       1000000000
    B24(4)    c46       -1000000000
    B24(4)    c47       1000000000
    B25(0)    OBJ       0
    B26(0)    OBJ       0
    B27(2)    c48       -1000000000
    B27(2)    c49       1000000000
    B28(0)    OBJ       0
    B29(2)    c50       -1000000000
    B29(2)    c51       1000000000
    B30(0)    OBJ       0
    B31(2)    c52       -1000000000
    B31(2)    c53       1000000000
    B32(0)    OBJ       0
    B33(2)    c54       -1000000000
    B33(2)    c55       1000000000
    B34(2)    c56       -1000000000
    B34(2)    c57       1000000000
    B35(2)    c58       -1000000000
    B35(2)    c59       1000000000
    B36(0)    OBJ       0
    B37(2)    c60       -1000000000
    B37(2)    c61       1000000000
    B38(0)    OBJ       0
    B39(0)    OBJ       0
    B40(0)    OBJ       0
    B41(2)    c62       -1000000000
    B41(2)    c63       1000000000
    B42(0)    OBJ       0
    B43(2)    c64       -1000000000
    B43(2)    c65       1000000000
    B44(4)    c66       -1000000000
    B44(4)    c67       1000000000
    B44(4)    c68       -1000000000
    B44(4)    c69       1000000000
    B45(0)    OBJ       0
    B46(0)    OBJ       0
    B47(0)    OBJ       0
    B48(0)    OBJ       0
    B49(2)    c70       -1000000000
    B49(2)    c71       1000000000
    B50(2)    c72       -1000000000
    B50(2)    c73       1000000000
    B51(2)    c74       -1000000000
    B51(2)    c75       1000000000
    B52(2)    c76       -1000000000
    B52(2)    c77       1000000000
    B53(0)    OBJ       0
    B54(0)    OBJ       0
    B55(0)    OBJ       0
    B56(0)    OBJ       0
    B57(2)    c78       -1000000000
    B57(2)    c79       1000000000
    B58(0)    OBJ       0
    B59(2)    c80       -1000000000
    B59(2)    c81       1000000000
    B60(2)    c82       -1000000000
    B60(2)    c83       1000000000
    B61(2)    c84       -1000000000
    B61(2)    c85       1000000000
    B62(0)    OBJ       0
    B63(0)    OBJ       0
    B64(0)    OBJ       0
    B65(0)    OBJ       0
    B66(2)    c86       -1000000000
    B66(2)    c87       1000000000
    B67(2)    c88       -1000000000
    B67(2)    c89       1000000000
    B68(0)    OBJ       0
    B69(0)    OBJ       0
    B70(2)    c90       -1000000000
    B70(2)    c91       1000000000
    B71(2)    c92       -1000000000
    B71(2)    c93       1000000000
    B72(0)    OBJ       0
    B73(0)    OBJ       0
    B74(0)    OBJ       0
    B75(0)    OBJ       0
    B76(0)    OBJ       0
    B77(0)    OBJ       0
    B78(0)    OBJ       0
    B79(0)    OBJ       0
    B80(0)    OBJ       0
    B81(0)    OBJ       0
    B82(0)    OBJ       0
    B83(0)    OBJ       0
    B84(0)    OBJ       0
    B85(0)    OBJ       0
    B86(0)    OBJ       0
    B87(0)    OBJ       0
    B88(0)    OBJ       0
    B89(0)    OBJ       0
    B90(0)    OBJ       0
    B91(0)    OBJ       0
    B92(0)    OBJ       0
    B93(0)    OBJ       0
    B94(0)    OBJ       0
    B95(0)    OBJ       0
    B96(0)    OBJ       0
    B97(0)    OBJ       0
    B98(0)    OBJ       0
    I99(9)    c9        -1
    I99(9)    c10       -1
    I99(9)    c20       1
    I99(9)    c40       1
    I99(9)    c41       -1
    I99(9)    c44       1
    I99(9)    c45       -1
    I99(9)    c94       1
    I99(9)    c95       1
    I100(13)  c9        -1
    I100(13)  c10       -1
    I100(13)  c21       1
    I100(13)  c38       1
    I100(13)  c39       -1
    I100(13)  c42       1
    I100(13)  c43       -1
    I100(13)  c46       1
    I100(13)  c47       -1
    I100(13)  c48       -1
    I100(13)  c49       1
    I100(13)  c96       1
    I100(13)  c97       1
    I101(15)  c9        1
    I101(15)  c10       1
    I101(15)  c11       -1
    I101(15)  c12       -1
    I101(15)  c22       1
    I101(15)  c50       1
    I101(15)  c51       -1
    I101(15)  c56       1
    I101(15)  c57       -1
    I101(15)  c58       1
    I101(15)  c59       -1
    I101(15)  c60       -1
    I101(15)  c61       1
    I101(15)  c98       1
    I101(15)  c99       1
    I102(15)  c9        1
    I102(15)  c10       1
    I102(15)  c11       -1
    I102(15)  c12       -1
    I102(15)  c23       1
    I102(15)  c38       -1
    I102(15)  c39       1
    I102(15)  c48       1
    I102(15)  c49       -1
    I102(15)  c52       1
    I102(15)  c53       -1
    I102(15)  c54       1
    I102(15)  c55       -1
    I102(15)  c100      1
    I102(15)  c101      1
    I103(14)  c11       1
    I103(14)  c12       1
    I103(14)  c24       1
    I103(14)  c50       -1
    I103(14)  c51       1
    I103(14)  c60       1
    I103(14)  c61       -1
    I103(14)  c64       1
    I103(14)  c65       -1
    I103(14)  c66       1
    I103(14)  c67       -1
    I103(14)  c102      1
    I103(14)  c103      1
    I103(14)  c130      -1
    I104(10)  c11       1
    I104(10)  c12       1
    I104(10)  c25       1
    I104(10)  c62       1
    I104(10)  c63       -1
    I104(10)  c68       1
    I104(10)  c69       -1
    I104(10)  c104      1
    I104(10)  c105      1
    I104(10)  c130      -1
    I105(9)   c13       -1
    I105(9)   c14       -1
    I105(9)   c26       1
    I105(9)   c40       -1
    I105(9)   c41       1
    I105(9)   c74       1
    I105(9)   c75       -1
    I105(9)   c106      1
    I105(9)   c107      1
    I106(15)  c13       -1
    I106(15)  c14       -1
    I106(15)  c27       1
    I106(15)  c70       1
    I106(15)  c71       -1
    I106(15)  c72       1
    I106(15)  c73       -1
    I106(15)  c76       1
    I106(15)  c77       -1
    I106(15)  c78       -1
    I106(15)  c79       1
    I106(15)  c86       -1
    I106(15)  c87       1
    I106(15)  c108      1
    I106(15)  c109      1
    I107(17)  c13       1
    I107(17)  c14       1
    I107(17)  c15       -1
    I107(17)  c16       -1
    I107(17)  c28       1
    I107(17)  c70       -1
    I107(17)  c71       1
    I107(17)  c78       1
    I107(17)  c79       -1
    I107(17)  c80       1
    I107(17)  c81       -1
    I107(17)  c84       1
    I107(17)  c85       -1
    I107(17)  c88       -1
    I107(17)  c89       1
    I107(17)  c110      1
    I107(17)  c111      1
    I108(13)  c13       1
    I108(13)  c14       1
    I108(13)  c15       -1
    I108(13)  c16       -1
    I108(13)  c29       1
    I108(13)  c42       -1
    I108(13)  c43       1
    I108(13)  c52       -1
    I108(13)  c53       1
    I108(13)  c82       1
    I108(13)  c83       -1
    I108(13)  c112      1
    I108(13)  c113      1
    I109(10)  c15       1
    I109(10)  c16       1
    I109(10)  c30       1
    I109(10)  c62       -1
    I109(10)  c63       1
    I109(10)  c92       1
    I109(10)  c93       -1
    I109(10)  c114      1
    I109(10)  c115      1
    I109(10)  c130      -1
    I110(16)  c15       1
    I110(16)  c16       1
    I110(16)  c31       1
    I110(16)  c72       -1
    I110(16)  c73       1
    I110(16)  c80       -1
    I110(16)  c81       1
    I110(16)  c86       1
    I110(16)  c87       -1
    I110(16)  c88       1
    I110(16)  c89       -1
    I110(16)  c90       1
    I110(16)  c91       -1
    I110(16)  c116      1
    I110(16)  c117      1
    I110(16)  c130      -1
    I111(8)   c17       -1
    I111(8)   c32       1
    I111(8)   c44       -1
    I111(8)   c45       1
    I111(8)   c74       -1
    I111(8)   c75       1
    I111(8)   c118      1
    I111(8)   c119      1
    I112(10)  c17       -1
    I112(10)  c33       1
    I112(10)  c46       -1
    I112(10)  c47       1
    I112(10)  c54       -1
    I112(10)  c55       1
    I112(10)  c82       -1
    I112(10)  c83       1
    I112(10)  c120      1
    I112(10)  c121      1
    I113(10)  c17       1
    I113(10)  c18       -1
    I113(10)  c19       -1
    I113(10)  c34       1
    I113(10)  c56       -1
    I113(10)  c57       1
    I113(10)  c64       -1
    I113(10)  c65       1
    I113(10)  c122      1
    I113(10)  c123      1
    I114(12)  c17       1
    I114(12)  c18       -1
    I114(12)  c19       -1
    I114(12)  c35       1
    I114(12)  c76       -1
    I114(12)  c77       1
    I114(12)  c84       -1
    I114(12)  c85       1
    I114(12)  c90       -1
    I114(12)  c91       1
    I114(12)  c124      1
    I114(12)  c125      1
    I115(10)  c18       1
    I115(10)  c19       1
    I115(10)  c36       1
    I115(10)  c58       -1
    I115(10)  c59       1
    I115(10)  c66       -1
    I115(10)  c67       1
    I115(10)  c126      1
    I115(10)  c127      1
    I115(10)  c130      -1
    I116(10)  c18       1
    I116(10)  c19       1
    I116(10)  c37       1
    I116(10)  c68       -1
    I116(10)  c69       1
    I116(10)  c92       -1
    I116(10)  c93       1
    I116(10)  c128      1
    I116(10)  c129      1
    I116(10)  c130      -1
    I117(1)   OBJ       1
    I117(1)   c130      1
    MARKER    'MARKER'                 'INTEND'
RHS
    RHS1      c0        1
    RHS1      c1        1
    RHS1      c2        1
    RHS1      c3        1
    RHS1      c4        1
    RHS1      c5        1
    RHS1      c6        1
    RHS1      c7        1
    RHS1      c8        1
    RHS1      c10       -1999999991
    RHS1      c12       -1999999990
    RHS1      c14       -1999999990
    RHS1      c16       -1999999986
    RHS1      c19       -1999999990
    RHS1      c38       -2999999861
    RHS1      c39       -1999999866
    RHS1      c40       -2999999777
    RHS1      c41       -1999999870
    RHS1      c42       -2999999923
    RHS1      c43       -1999999866
    RHS1      c44       -2999999902
    RHS1      c45       -1999999871
    RHS1      c46       -2999999923
    RHS1      c47       -1999999865
    RHS1      c48       -2999999866
    RHS1      c49       -1999999861
    RHS1      c50       -2999999835
    RHS1      c51       -1999999850
    RHS1      c52       -2999999921
    RHS1      c53       -1999999857
    RHS1      c54       -2999999928
    RHS1      c55       -1999999860
    RHS1      c56       -2999999920
    RHS1      c57       -1999999850
    RHS1      c58       -2999999799
    RHS1      c59       -1999999851
    RHS1      c60       -2999999850
    RHS1      c61       -1999999835
    RHS1      c62       -2999999910
    RHS1      c63       -1999999830
    RHS1      c64       -2999999920
    RHS1      c65       -1999999837
    RHS1      c66       -2999999800
    RHS1      c67       -1999999838
    RHS1      c68       -2999999891
    RHS1      c69       -1999999828
    RHS1      c70       -2999999931
    RHS1      c71       -1999999840
    RHS1      c72       -2999999924
    RHS1      c73       -1999999839
    RHS1      c74       -2999999901
    RHS1      c75       -1999999772
    RHS1      c76       -2999999910
    RHS1      c77       -1999999840
    RHS1      c78       -2999999840
    RHS1      c79       -1999999931
    RHS1      c80       -2999999924
    RHS1      c81       -1999999931
    RHS1      c82       -2999999925
    RHS1      c83       -1999999922
    RHS1      c84       -2999999908
    RHS1      c85       -1999999936
    RHS1      c86       -2999999839
    RHS1      c87       -1999999924
    RHS1      c88       -2999999931
    RHS1      c89       -1999999924
    RHS1      c90       -2999999909
    RHS1      c91       -1999999923
    RHS1      c92       -2999999886
    RHS1      c93       -1999999912
BOUNDS
 BV BND1      B0(8)   
 BV BND1      B1(12)  
 BV BND1      B2(12)  
 BV BND1      B3(13)  
 BV BND1      B4(12)  
 BV BND1      B5(7)   
 BV BND1      B6(8)   
 BV BND1      B7(14)  
 BV BND1      B8(15)  
 BV BND1      B9(10)  
 BV BND1      B10(7)  
 BV BND1      B11(14) 
 BV BND1      B12(7)  
 BV BND1      B13(9)  
 BV BND1      B14(8)  
 BV BND1      B15(10) 
 BV BND1      B16(8)  
 BV BND1      B17(7)  
 BV BND1      B18(0)  
 BV BND1      B19(2)  
 BV BND1      B20(0)  
 BV BND1      B21(2)  
 BV BND1      B22(2)  
 BV BND1      B23(0)  
 BV BND1      B24(4)  
 BV BND1      B25(0)  
 BV BND1      B26(0)  
 BV BND1      B27(2)  
 BV BND1      B28(0)  
 BV BND1      B29(2)  
 BV BND1      B30(0)  
 BV BND1      B31(2)  
 BV BND1      B32(0)  
 BV BND1      B33(2)  
 BV BND1      B34(2)  
 BV BND1      B35(2)  
 BV BND1      B36(0)  
 BV BND1      B37(2)  
 BV BND1      B38(0)  
 BV BND1      B39(0)  
 BV BND1      B40(0)  
 BV BND1      B41(2)  
 BV BND1      B42(0)  
 BV BND1      B43(2)  
 BV BND1      B44(4)  
 BV BND1      B45(0)  
 BV BND1      B46(0)  
 BV BND1      B47(0)  
 BV BND1      B48(0)  
 BV BND1      B49(2)  
 BV BND1      B50(2)  
 BV BND1      B51(2)  
 BV BND1      B52(2)  
 BV BND1      B53(0)  
 BV BND1      B54(0)  
 BV BND1      B55(0)  
 BV BND1      B56(0)  
 BV BND1      B57(2)  
 BV BND1      B58(0)  
 BV BND1      B59(2)  
 BV BND1      B60(2)  
 BV BND1      B61(2)  
 BV BND1      B62(0)  
 BV BND1      B63(0)  
 BV BND1      B64(0)  
 BV BND1      B65(0)  
 BV BND1      B66(2)  
 BV BND1      B67(2)  
 BV BND1      B68(0)  
 BV BND1      B69(0)  
 BV BND1      B70(2)  
 BV BND1      B71(2)  
 BV BND1      B72(0)  
 BV BND1      B73(0)  
 BV BND1      B74(0)  
 BV BND1      B75(0)  
 BV BND1      B76(0)  
 BV BND1      B77(0)  
 BV BND1      B78(0)  
 BV BND1      B79(0)  
 BV BND1      B80(0)  
 BV BND1      B81(0)  
 BV BND1      B82(0)  
 BV BND1      B83(0)  
 BV BND1      B84(0)  
 BV BND1      B85(0)  
 BV BND1      B86(0)  
 BV BND1      B87(0)  
 BV BND1      B88(0)  
 BV BND1      B89(0)  
 BV BND1      B90(0)  
 BV BND1      B91(0)  
 BV BND1      B92(0)  
 BV BND1      B93(0)  
 BV BND1      B94(0)  
 BV BND1      B95(0)  
 BV BND1      B96(0)  
 BV BND1      B97(0)  
 BV BND1      B98(0)  
 LI BND1      I99(9)    0
 LI BND1      I100(13)  0
 LI BND1      I101(15)  0
 LI BND1      I102(15)  0
 LI BND1      I103(14)  0
 LI BND1      I104(10)  0
 LI BND1      I105(9)   0
 LI BND1      I106(15)  0
 LI BND1      I107(17)  0
 LI BND1      I108(13)  0
 LI BND1      I109(10)  0
 LI BND1      I110(16)  0
 LI BND1      I111(8)   0
 LI BND1      I112(10)  0
 LI BND1      I113(10)  0
 LI BND1      I114(12)  0
 LI BND1      I115(10)  0
 LI BND1      I116(10)  0
 LI BND1      I117(1)   0
ENDATA
